p cnf 140 212
-1 136 0 
-2 5 19 55 137 0 
-3 124 -4 137 0 
-5 2 19 55 137 0 
-6 56 137 0 
-7 38 96 137 0 
-8 72 75 114 -7 38 96 137 0 
-9 13 17 40 47 80 94 98 103 104 112 118 122 127 136 0 
-8 72 75 114 136 0 
-10 137 0 
-11 33 42 54 88 126 128 129 -12 137 0 
-13 9 17 40 47 80 94 98 103 104 112 118 122 127 136 0 
-14 136 0 
-15 39 79 87 113 121 130 137 0 
-15 39 79 87 113 121 130 136 0 
-10 -16 23 48 49 86 116 117 137 0 
-10 -17 9 13 40 47 80 94 98 103 104 112 118 122 127 136 0 
-18 137 0 
-19 2 5 55 -20 137 0 
-17 9 13 40 47 80 94 98 103 104 112 118 122 127 136 0 
-21 30 -10 137 0 
-22 32 -10 136 0 
-14 -23 16 48 49 86 116 117 137 0 
-6 56 -24 137 0 
-25 37 -26 137 0 
-27 137 0 
-6 56 -28 136 0 
-29 71 73 131 -30 21 136 0 
-28 -31 77 136 0 
-32 22 -33 11 42 54 88 126 128 129 137 0 
-34 -24 137 0 
-35 97 107 125 137 0 
-36 41 44 45 46 81 85 115 134 137 0 
-22 32 -37 25 136 0 
-8 72 75 114 -38 7 96 -12 137 0 
-39 15 79 87 113 121 130 -12 137 0 
-40 9 13 17 47 80 94 98 103 104 112 118 122 127 -41 36 44 45 46 81 85 115 134 137 0 
-42 11 33 54 88 126 128 129 138 0 
-43 -44 36 41 45 46 81 85 115 134 137 0 
-10 -45 36 41 44 46 81 85 115 134 137 0 
-43 -46 36 41 44 45 81 85 115 134 137 0 
-16 23 48 49 86 116 117 -37 25 137 0 
-33 11 42 54 88 126 128 129 136 0 
-47 9 13 17 40 80 94 98 103 104 112 118 122 127 136 0 
-48 16 23 49 86 116 117 136 0 
-33 11 42 54 88 126 128 129 137 0 
-43 -49 16 23 48 86 116 117 137 0 
-14 -50 137 0 
-14 -51 137 0 
-50 136 0 
-52 136 0 
-53 -54 11 33 42 88 126 128 129 137 0 
-51 136 0 
-4 -20 136 0 
-55 2 5 19 -56 6 136 0 
-57 64 -20 136 0 
-3 124 137 0 
-58 136 0 
-59 -20 136 0 
-60 -12 -20 137 0 
-61 -20 137 0 
-37 25 -62 137 0 
-63 -64 57 -20 136 0 
-12 -20 137 0 
-20 136 0 
-7 38 96 -65 -20 137 0 
-66 101 -67 -20 137 0 
-15 39 79 87 113 121 130 -65 136 0 
-68 137 0 
-15 39 79 87 113 121 130 -65 137 0 
-68 137 0 
-41 36 44 45 46 81 85 115 134 -65 136 0 
-6 56 -20 137 0 
-69 -70 137 0 
-17 9 13 40 47 80 94 98 103 104 112 118 122 127 137 0 
-21 30 -37 25 -17 9 13 40 47 80 94 98 103 104 112 118 122 127 137 0 
-43 -33 11 42 54 88 126 128 129 136 0 
-71 29 73 131 136 0 
-72 8 75 114 136 0 
-73 29 71 131 136 0 
-74 136 0 
-75 8 72 114 136 0 
-53 -17 9 13 40 47 80 94 98 103 104 112 118 122 127 136 0 
-6 56 -15 39 79 87 113 121 130 136 0 
-17 9 13 40 47 80 94 98 103 104 112 118 122 127 -15 39 79 87 113 121 130 136 0 
-21 30 -37 25 137 0 
-76 137 0 
-17 9 13 40 47 80 94 98 103 104 112 118 122 127 -15 39 79 87 113 121 130 137 0 
-77 31 -65 -20 136 0 
-59 -78 82 136 0 
-79 15 39 87 113 121 130 137 0 
-80 9 13 17 40 47 94 98 103 104 112 118 122 127 139 0 
-81 36 41 44 45 46 85 115 134 -8 72 75 114 136 0 
-82 78 136 0 
-66 101 -83 -20 137 0 
-84 137 0 
-85 36 41 44 45 46 81 115 134 137 0 
-86 16 23 48 49 116 117 -12 137 0 
-87 15 39 79 113 121 130 136 0 
-88 11 33 42 54 126 128 129 136 0 
-89 91 111 136 0 
-89 91 111 137 0 
-90 136 0 
-53 -12 137 0 
-91 89 111 136 0 
-92 106 110 136 0 
-92 106 110 137 0 
-93 136 0 
-94 9 13 17 40 47 80 98 103 104 112 118 122 127 137 0 
-95 -96 7 38 136 0 
-48 16 23 49 86 116 117 137 0 
-95 -96 7 38 137 0 
-97 35 107 125 136 0 
-37 25 137 0 
-97 35 107 125 137 0 
-98 9 13 17 40 47 80 94 103 104 112 118 122 127 136 0 
-99 136 0 
-66 101 -99 137 0 
-88 11 33 42 54 126 128 129 -65 137 0 
-100 -99 136 0 
-101 66 137 0 
-51 137 0 
-37 25 -16 23 48 49 86 116 117 137 0 
-15 39 79 87 113 121 130 -45 36 41 44 46 81 85 115 134 137 0 
-37 25 -51 137 0 
-21 30 -50 137 0 
-34 -27 136 0 
-6 56 -33 11 42 54 88 126 128 129 136 0 
-14 -33 11 42 54 88 126 128 129 136 0 
-102 105 136 0 
-68 137 0 
-90 137 0 
-103 9 13 17 40 47 80 94 98 104 112 118 122 127 136 0 
-37 25 -20 137 0 
-104 9 13 17 40 47 80 94 98 103 112 118 122 127 137 0 
-104 9 13 17 40 47 80 94 98 103 112 118 122 127 136 0 
-8 72 75 114 -20 136 0 
-105 102 137 0 
-8 72 75 114 -12 137 0 
-106 92 110 136 0 
-107 35 97 125 136 0 
-15 39 79 87 113 121 130 -12 137 0 
-12 137 0 
-7 38 96 -20 137 0 
-20 137 0 
-108 -12 137 0 
-109 136 0 
-41 36 44 45 46 81 85 115 134 -20 137 0 
-110 92 106 136 0 
-56 6 -20 137 0 
-111 89 91 136 0 
-112 9 13 17 40 47 80 94 98 103 104 118 122 127 137 0 
-113 15 39 79 87 121 130 137 0 
-113 15 39 79 87 121 130 136 0 
-114 8 72 75 137 0 
-15 39 79 87 113 121 130 -50 137 0 
-21 30 -37 25 -115 36 41 44 45 46 81 85 134 137 0 
-50 137 0 
-6 56 -37 25 -16 23 48 49 86 116 117 137 0 
-6 56 -17 9 13 40 47 80 94 98 103 104 112 118 122 127 137 0 
-43 -116 16 23 48 49 86 117 137 0 
-15 39 79 87 113 121 130 -117 16 23 48 49 86 116 137 0 
-118 9 13 17 40 47 80 94 98 103 104 112 122 127 -119 -120 140 0 
-53 -37 25 -16 23 48 49 86 116 117 137 0 
-10 -85 36 41 44 45 46 81 115 134 137 0 
-15 39 79 87 113 121 130 -85 36 41 44 45 46 81 115 134 137 0 
-15 39 79 87 113 121 130 -115 36 41 44 45 46 81 85 134 137 0 
-53 -51 137 0 
-121 15 39 79 87 113 130 136 0 
-6 56 -122 9 13 17 40 47 80 94 98 103 104 112 118 127 -121 15 39 79 87 113 130 136 0 
-123 137 0 
-43 -51 136 0 
-34 -27 137 0 
-37 25 -115 36 41 44 45 46 81 85 134 136 0 
-10 -81 36 41 44 45 46 85 115 134 136 0 
-10 -16 23 48 49 86 116 117 136 0 
-124 3 136 0 
-125 35 97 107 137 0 
-18 -20 136 0 
-99 -64 57 -20 136 0 
-54 11 33 42 88 126 128 129 136 0 
-14 -37 25 -33 11 42 54 88 126 128 129 136 0 
-14 -33 11 42 54 88 126 128 129 -16 23 48 49 86 116 117 137 0 
-14 -17 9 13 40 47 80 94 98 103 104 112 118 122 127 136 0 
-37 25 -81 36 41 44 45 46 85 115 134 137 0 
-21 30 -53 -51 137 0 
-10 -50 137 0 
-14 -17 9 13 40 47 80 94 98 103 104 112 118 122 127 137 0 
-6 56 -14 -50 137 0 
-126 11 33 42 54 88 128 129 136 0 
-37 25 -85 36 41 44 45 46 81 115 134 137 0 
-15 39 79 87 113 121 130 -16 23 48 49 86 116 117 137 0 
-15 39 79 87 113 121 130 -117 16 23 48 49 86 116 136 0 
-43 -16 23 48 49 86 116 117 -15 39 79 87 113 121 130 136 0 
-15 39 79 87 113 121 130 -115 36 41 44 45 46 81 85 134 136 0 
-43 -116 16 23 48 49 86 117 136 0 
-15 39 79 87 113 121 130 -12 136 0 
-127 9 13 17 40 47 80 94 98 103 104 112 118 122 137 0 
-128 11 33 42 54 88 126 129 136 0 
-129 11 33 42 54 88 126 128 138 0 
-6 56 -33 11 42 54 88 126 128 129 137 0 
-130 15 39 79 87 113 121 136 0 
-21 30 -17 9 13 40 47 80 94 98 103 104 112 118 122 127 136 0 
-40 9 13 17 47 80 94 98 103 104 112 118 122 127 138 0 
-24 -34 136 0 
-131 29 71 73 137 0 
-132 136 0 
-131 29 71 73 136 0 
-133 -65 137 0 
-134 36 41 44 45 46 81 85 115 -65 137 0 
-37 25 -135 137 0 
-100 -83 136 0 
